NAME : X_18_seed_123_id_2
TYPE : CVRP
DIMENSION : 181
EDGE_WEIGHT_TYPE : EUC_2D
CAPACITY : 8
NODE_COORD_SECTION
1	276	975
2	144	979
3	214	892
4	619	548
5	536	298
6	97	551
7	898	509
8	161	961
9	239	583
10	889	508
11	905	545
12	934	538
13	518	123
14	538	304
15	506	197
16	607	532
17	147	947
18	190	942
19	527	365
20	536	227
21	571	558
22	557	303
23	972	526
24	550	284
25	105	999
26	77	588
27	210	858
28	237	796
29	224	997
30	637	559
31	523	174
32	116	335
33	115	901
34	37	856
35	656	542
36	20	569
37	29	947
38	274	858
39	77	530
40	510	409
41	963	466
42	876	480
43	892	523
44	895	481
45	508	293
46	125	961
47	58	531
48	502	685
49	658	505
50	239	868
51	511	424
52	533	285
53	77	863
54	160	888
55	904	556
56	911	494
57	801	395
58	557	339
59	527	414
60	604	563
61	974	552
62	955	472
63	558	457
64	888	618
65	647	526
66	499	346
67	892	523
68	937	492
69	103	943
70	501	282
71	123	975
72	687	235
73	232	982
74	204	960
75	867	492
76	42	887
77	124	502
78	369	818
79	118	945
80	440	288
81	128	937
82	165	1000
83	232	584
84	187	596
85	580	198
86	192	929
87	127	526
88	32	568
89	517	298
90	614	525
91	226	921
92	101	894
93	491	310
94	836	540
95	598	322
96	112	974
97	94	621
98	615	558
99	222	850
100	107	498
101	529	351
102	104	915
103	385	955
104	163	965
105	593	593
106	812	460
107	618	502
108	919	505
109	118	991
110	203	934
111	521	544
112	434	442
113	892	514
114	176	601
115	113	579
116	606	536
117	66	931
118	558	354
119	202	928
120	101	991
121	88	570
122	653	662
123	67	523
124	661	609
125	585	311
126	230	844
127	488	316
128	160	784
129	161	974
130	411	336
131	211	868
132	861	527
133	915	564
134	843	531
135	583	265
136	869	469
137	669	615
138	879	541
139	341	875
140	688	267
141	587	672
142	180	802
143	614	499
144	475	578
145	599	614
146	126	866
147	214	930
148	536	469
149	132	589
150	127	900
151	257	949
152	539	424
153	189	971
154	727	689
155	183	948
156	538	269
157	635	569
158	949	495
159	180	861
160	661	573
161	469	303
162	590	671
163	473	304
164	71	482
165	145	929
166	899	493
167	67	456
168	239	861
169	844	530
170	689	288
171	197	893
172	71	616
173	532	585
174	634	513
175	930	544
176	142	959
177	124	533
178	114	534
179	181	853
180	563	363
181	579	247
DEMAND_SECTION
1	0
2	1
3	1
4	1
5	1
6	1
7	1
8	1
9	1
10	1
11	1
12	1
13	1
14	1
15	1
16	1
17	1
18	1
19	1
20	1
21	1
22	1
23	1
24	1
25	1
26	1
27	1
28	1
29	1
30	1
31	1
32	1
33	1
34	1
35	1
36	1
37	1
38	1
39	1
40	1
41	1
42	1
43	1
44	1
45	1
46	1
47	1
48	1
49	1
50	1
51	1
52	1
53	1
54	1
55	1
56	1
57	1
58	1
59	1
60	1
61	1
62	1
63	1
64	1
65	1
66	1
67	1
68	1
69	1
70	1
71	1
72	1
73	1
74	1
75	1
76	1
77	1
78	1
79	1
80	1
81	1
82	1
83	1
84	1
85	1
86	1
87	1
88	1
89	1
90	1
91	1
92	1
93	1
94	1
95	1
96	1
97	1
98	1
99	1
100	1
101	1
102	1
103	1
104	1
105	1
106	1
107	1
108	1
109	1
110	1
111	1
112	1
113	1
114	1
115	1
116	1
117	1
118	1
119	1
120	1
121	1
122	1
123	1
124	1
125	1
126	1
127	1
128	1
129	1
130	1
131	1
132	1
133	1
134	1
135	1
136	1
137	1
138	1
139	1
140	1
141	1
142	1
143	1
144	1
145	1
146	1
147	1
148	1
149	1
150	1
151	1
152	1
153	1
154	1
155	1
156	1
157	1
158	1
159	1
160	1
161	1
162	1
163	1
164	1
165	1
166	1
167	1
168	1
169	1
170	1
171	1
172	1
173	1
174	1
175	1
176	1
177	1
178	1
179	1
180	1
181	1
DEPOT_SECTION
1
-1
EOF
